; benchmark generated from python API
(set-info :status unknown)
(declare-fun x5 () Real)
(declare-fun x3 () Real)
(declare-fun bool.b5 () Bool)
(declare-fun x4 () Real)
(declare-fun bool.b14 () Bool)
(declare-fun bool.b10 () Bool)
(declare-fun bool.b8 () Bool)
(declare-fun bool.b12 () Bool)
(declare-fun bool.b23 () Bool)
(declare-fun bool.b6 () Bool)
(declare-fun bool.b7 () Bool)
(declare-fun bool.b22 () Bool)
(assert
 (forall ((?lambda Real) )(let ((?x6782 (+ x3 (* (/ (- 1.0) 5.0) ?lambda))))
 (let ((?x11188 (* 1.0 ?x6782)))
 (let ((?x13993 (+ ?x11188 (* (/ 1.0 5.0) (+ x5 (* 1.0 ?lambda))))))
 (let (($x38974 (<= ?x13993 2.0)))
 (let (($x20390 (not bool.b5)))
 (let (($x10620 (not (and $x20390 (not (<= (* 1.0 (+ x4 (* 60.0 ?lambda))) 4820.0))))))
 (let (($x16753 (<= ?x11188 0.0)))
 (let (($x13794 (and (and (not bool.b8) (not bool.b10)) (and $x20390 (not bool.b14)))))
 (let (($x19289 (not bool.b12)))
 (let (($x26037 (and $x19289 $x13794)))
 (let (($x9843 (and (<= (+ ?x11188 (* (/ 3.0 20.0) (+ x4 (* 60.0 ?lambda)))) 1200.0) $x26037)))
 (let (($x19874 (<= ?x11188 40.0)))
 (let (($x25774 (not (<= (+ ?x11188 (* (/ 3.0 20.0) (+ x4 (* 60.0 ?lambda)))) 723.0))))
 (let (($x12840 (and (<= (+ ?x11188 (* 3.0 (+ x5 (* 1.0 ?lambda)))) 50.0) (and $x25774 (and $x19874 $x9843)))))
 (let (($x12612 (<= (* (- 1.0) (+ x5 (* 1.0 ?lambda))) (- 10.0))))
 (let (($x32330 (and $x12612 (and (not (and (not $x16753) (not $x12840))) (not (and $x16753 $x10620))))))
 (let ((?x811 (+ (* (- 1.0) ?x6782) (* (/ (- 1.0) 5.0) (+ x5 (* 1.0 ?lambda))))))
 (let (($x5275 (<= ?x811 (- 2.0))))
 (let (($x8521 (and $x5275 (and (not (and (not $x38974) (not $x32330))) (not (and bool.b5 $x38974))))))
 (let ((?x16571 (+ ?x11188 (* (/ 3.0 20.0) (+ x4 (* 60.0 ?lambda))))))
 (let ((?x8108 (+ ?x16571 (* (/ (- 44.0) 5.0) (+ x5 (* 1.0 ?lambda))))))
 (let (($x8959 (<= ?x8108 635.0)))
 (let (($x1242 (not $x8959)))
 (let (($x13197 (<= ?x8108 1112.0)))
 (let ((?x3386 (+ ?x11188 (* (/ 3.0 40.0) (+ x4 (* 60.0 ?lambda))))))
 (let (($x33764 (<= ?x3386 610.0)))
 (let (($x9941 (<= ?x3386 (/ 743.0 2.0))))
 (let (($x4468 (not $x9941)))
 (let (($x20115 (and (not (and $x9941 (not (and $x25774 $x9843)))) (not (and $x4468 (not (and $x33764 (and (<= ?x11188 30.0) $x9843))))))))
 (let (($x984 (and (not (<= ?x13993 22.0)) (not (and $x4468 (and $x33764 (and (<= ?x11188 30.0) (and $x12612 $x26037))))))))
 (let (($x12491 (not (and $x5275 (and (not $x984) (not (and (not $x26037) (<= ?x13993 22.0))))))))
 (let (($x9372 (and $x13197 (and (not (and $x1242 $x12491)) (not (and $x8959 (not (and $x12612 $x20115))))))))
 (let (($x34020 (not bool.b23)))
 (let (($x8544 (and (not (and $x34020 (not $x9372))) (not (and bool.b23 (not (and $x13197 (and $x1242 $x8521))))))))
 (let (($x24002 (not (and (not bool.b7) (not (and bool.b5 (not bool.b6)))))))
 (let (($x24864 (not bool.b22)))
 (let (($x32878 (and $x24864 (and $x24002 (not (and bool.b7 (not (and bool.b6 $x8544))))))))
 (let (($x18594 (exists ((?lambdaprime Real) )(! (let (($x24864 (not bool.b22)))
 (let (($x19670 (not (<= (* 1.0 (+ x3 (* (/ (- 1.0) 5.0) ?lambdaprime))) 33.0))))
 (let (($x5280 (and $x19670 (not (<= (* (- 1.0) (+ x4 (* 60.0 ?lambdaprime))) (- 4910.0))))))
 (let ((?x6782 (+ x3 (* (/ (- 1.0) 5.0) ?lambdaprime))))
 (let ((?x11188 (* 1.0 ?x6782)))
 (let (($x19874 (<= ?x11188 40.0)))
 (let (($x8621 (not $x19874)))
 (let (($x12925 (and (not (and $x8621 $x5280)) (and $x24864 (and (not bool.b7) (and (not bool.b5) bool.b6))))))
 (let (($x8353 (and $x19670 (not (<= (* (- 1.0) (+ x4 (* 60.0 ?lambdaprime))) (- 4500.0))))))
 (let (($x10892 (and (not (and $x8621 $x8353)) (and $x24864 (and bool.b7 (and (not bool.b5) (not bool.b6)))))))
 (let (($x32615 (and (not (<= (* (- 1.0) (+ x4 (* 60.0 ?lambdaprime))) (- 4100.0))) $x19670)))
 (let (($x11965 (and (not (and $x8621 $x32615)) (and $x24864 (and (not bool.b7) (and (not bool.b5) (not bool.b6)))))))
 (let (($x7081 (and (not (<= (* (- 1.0) (+ x5 (* 1.0 ?lambdaprime))) (- 10.0))) (and (and (not $x11965) (not $x10892)) (not $x12925)))))
 (and (and (<= 0.0 ?lambdaprime) (<= ?lambdaprime ?lambda)) (not $x7081))))))))))))))) :qid k!27))
 ))
 (or (or $x18594 (< ?lambda 0.0)) (not $x32878)))))))))))))))))))))))))))))))))))))))))
 )
(check-sat)
